param n := 120;
param c := 1000;
param : V : p w :=
   0	 380	 370
   1	 296	 286
   2	 354	 344
   3	 372	 362
   4	 304	 294
   5	 354	 344
   6	 476	 466
   7	 273	 263
   8	 281	 271
   9	 495	 485
  10	 263	 253
  11	 272	 262
  12	 386	 376
  13	 314	 304
  14	 330	 320
  15	 423	 413
  16	 298	 288
  17	 309	 299
  18	 383	 373
  19	 287	 277
  20	 360	 350
  21	 436	 426
  22	 273	 263
  23	 321	 311
  24	 490	 480
  25	 265	 255
  26	 275	 265
  27	 391	 381
  28	 269	 259
  29	 370	 360
  30	 409	 399
  31	 282	 272
  32	 339	 329
  33	 439	 429
  34	 284	 274
  35	 307	 297
  36	 405	 395
  37	 268	 258
  38	 357	 347
  39	 473	 463
  40	 267	 257
  41	 290	 280
  42	 508	 498
  43	 260	 250
  44	 262	 252
  45	 422	 412
  46	 268	 258
  47	 340	 330
  48	 509	 499
  49	 260	 250
  50	 261	 251
  51	 468	 458
  52	 277	 267
  53	 285	 275
  54	 360	 350
  55	 293	 283
  56	 377	 367
  57	 444	 434
  58	 287	 277
  59	 299	 289
  60	 380	 370
  61	 283	 273
  62	 367	 357
  63	 505	 495
  64	 260	 250
  65	 265	 255
  66	 474	 464
  67	 264	 254
  68	 292	 282
  69	 371	 361
  70	 300	 290
  71	 359	 349
  72	 361	 351
  73	 261	 251
  74	 408	 398
  75	 380	 370
  76	 297	 287
  77	 353	 343
  78	 438	 428
  79	 267	 257
  80	 325	 315
  81	 455	 445
  82	 282	 272
  83	 293	 283
  84	 450	 440
  85	 264	 254
  86	 316	 306
  87	 445	 435
  88	 289	 279
  89	 296	 286
  90	 461	 451
  91	 278	 268
  92	 291	 281
  93	 440	 430
  94	 271	 261
  95	 319	 309
  96	 378	 368
  97	 284	 274
  98	 368	 358
  99	 437	 427
 100	 260	 250
 101	 333	 323
 102	 454	 444
 103	 280	 270
 104	 296	 286
 105	 504	 494
 106	 260	 250
 107	 266	 256
 108	 378	 368
 109	 310	 300
 110	 342	 332
 111	 501	 491
 112	 263	 253
 113	 266	 256
 114	 436	 426
 115	 284	 274
 116	 310	 300
 117	 505	 495
 118	 260	 250
 119	 265	 255
;

set E :=
   0	   1
   0	   4
   0	   8
   0	  11
   0	  17
   0	  18
   0	  21
   0	  24
   0	  25
   0	  26
   0	  27
   0	  32
   0	  34
   0	  36
   0	  38
   0	  40
   0	  48
   0	  49
   0	  54
   0	  59
   0	  61
   0	  64
   0	  73
   0	  86
   0	  88
   0	  90
   0	  92
   0	 100
   0	 107
   0	 114
   0	 115
   0	 119
   1	   8
   1	   9
   1	  12
   1	  14
   1	  15
   1	  19
   1	  20
   1	  21
   1	  26
   1	  27
   1	  31
   1	  34
   1	  36
   1	  37
   1	  38
   1	  42
   1	  46
   1	  47
   1	  50
   1	  57
   1	  58
   1	  68
   1	  74
   1	  79
   1	  84
   1	  93
   1	  95
   1	  96
   1	  97
   1	 102
   1	 103
   1	 104
   1	 105
   1	 107
   1	 110
   1	 111
   1	 117
   2	   7
   2	   9
   2	  17
   2	  19
   2	  28
   2	  29
   2	  40
   2	  44
   2	  46
   2	  47
   2	  48
   2	  50
   2	  52
   2	  53
   2	  55
   2	  60
   2	  64
   2	  67
   2	  68
   2	  69
   2	  70
   2	  74
   2	  75
   2	  76
   2	  78
   2	  80
   2	  82
   2	  83
   2	  84
   2	  91
   2	  92
   2	  94
   2	  96
   2	  97
   2	  98
   2	  99
   2	 102
   2	 105
   2	 106
   3	   5
   3	   9
   3	  12
   3	  17
   3	  22
   3	  24
   3	  25
   3	  26
   3	  31
   3	  36
   3	  37
   3	  45
   3	  51
   3	  55
   3	  59
   3	  64
   3	  67
   3	  70
   3	  72
   3	  74
   3	  75
   3	  82
   3	  83
   3	  89
   3	  92
   3	  94
   3	  95
   3	  96
   3	  98
   3	  99
   3	 100
   3	 103
   3	 112
   3	 117
   4	   5
   4	  11
   4	  12
   4	  25
   4	  30
   4	  31
   4	  34
   4	  36
   4	  41
   4	  48
   4	  51
   4	  52
   4	  54
   4	  60
   4	  68
   4	  74
   4	  76
   4	  79
   4	  82
   4	  83
   4	  85
   4	  86
   4	  94
   4	  95
   4	  99
   4	 101
   4	 109
   4	 111
   4	 112
   4	 113
   4	 114
   4	 119
   5	   9
   5	  10
   5	  14
   5	  20
   5	  24
   5	  26
   5	  27
   5	  28
   5	  34
   5	  35
   5	  37
   5	  38
   5	  41
   5	  46
   5	  52
   5	  53
   5	  57
   5	  60
   5	  70
   5	  71
   5	  72
   5	  80
   5	  87
   5	  88
   5	  90
   5	  95
   5	  96
   5	 103
   5	 106
   5	 107
   5	 108
   5	 111
   5	 112
   5	 113
   5	 117
   6	  11
   6	  12
   6	  17
   6	  21
   6	  25
   6	  29
   6	  34
   6	  37
   6	  44
   6	  54
   6	  55
   6	  58
   6	  60
   6	  61
   6	  64
   6	  67
   6	  68
   6	  72
   6	  76
   6	  78
   6	  80
   6	  84
   6	  86
   6	  92
   6	  98
   6	 105
   6	 106
   6	 109
   6	 112
   6	 115
   6	 117
   7	   9
   7	  12
   7	  13
   7	  17
   7	  22
   7	  25
   7	  26
   7	  28
   7	  47
   7	  53
   7	  54
   7	  61
   7	  67
   7	  68
   7	  69
   7	  74
   7	  77
   7	  78
   7	  79
   7	  81
   7	  82
   7	  84
   7	  85
   7	  93
   7	  96
   7	 106
   7	 107
   7	 111
   7	 116
   7	 117
   8	  10
   8	  11
   8	  15
   8	  18
   8	  21
   8	  23
   8	  24
   8	  27
   8	  29
   8	  40
   8	  41
   8	  43
   8	  52
   8	  60
   8	  63
   8	  65
   8	  67
   8	  69
   8	  72
   8	  73
   8	  74
   8	  75
   8	  81
   8	  82
   8	  83
   8	  84
   8	  92
   8	  93
   8	  95
   8	  96
   8	 100
   8	 101
   8	 104
   8	 107
   8	 110
   8	 113
   8	 114
   8	 119
   9	  16
   9	  17
   9	  20
   9	  23
   9	  24
   9	  37
   9	  40
   9	  43
   9	  46
   9	  47
   9	  51
   9	  56
   9	  60
   9	  62
   9	  66
   9	  70
   9	  71
   9	  78
   9	  80
   9	  86
   9	  95
   9	  96
   9	  99
   9	 101
   9	 108
   9	 112
   9	 114
   9	 116
   9	 117
  10	  12
  10	  13
  10	  18
  10	  28
  10	  31
  10	  32
  10	  36
  10	  39
  10	  42
  10	  48
  10	  51
  10	  52
  10	  55
  10	  58
  10	  59
  10	  62
  10	  63
  10	  64
  10	  69
  10	  71
  10	  76
  10	  78
  10	  83
  10	  84
  10	  86
  10	  90
  10	  91
  10	 100
  10	 106
  10	 107
  10	 108
  10	 109
  10	 114
  10	 115
  11	  14
  11	  15
  11	  18
  11	  19
  11	  21
  11	  27
  11	  36
  11	  38
  11	  43
  11	  44
  11	  53
  11	  55
  11	  60
  11	  69
  11	  70
  11	  74
  11	  75
  11	  82
  11	  84
  11	  85
  11	  87
  11	  90
  11	  91
  11	  95
  11	  97
  11	 101
  11	 102
  11	 103
  11	 104
  11	 110
  11	 112
  11	 115
  12	  13
  12	  20
  12	  22
  12	  27
  12	  32
  12	  33
  12	  35
  12	  41
  12	  43
  12	  44
  12	  46
  12	  49
  12	  57
  12	  61
  12	  62
  12	  63
  12	  66
  12	  67
  12	  68
  12	  71
  12	  72
  12	  77
  12	  85
  12	  87
  12	  88
  12	  91
  12	  92
  12	  94
  12	 104
  12	 108
  12	 109
  12	 117
  13	  14
  13	  15
  13	  17
  13	  22
  13	  24
  13	  30
  13	  34
  13	  40
  13	  43
  13	  47
  13	  52
  13	  60
  13	  64
  13	  65
  13	  71
  13	  74
  13	  76
  13	  78
  13	  79
  13	  87
  13	  88
  13	  89
  13	  90
  13	  93
  13	  94
  13	 105
  13	 106
  13	 113
  13	 117
  14	  16
  14	  17
  14	  22
  14	  25
  14	  30
  14	  31
  14	  39
  14	  41
  14	  43
  14	  47
  14	  51
  14	  57
  14	  58
  14	  65
  14	  67
  14	  68
  14	  72
  14	  77
  14	  80
  14	  82
  14	  83
  14	  85
  14	  87
  14	  88
  14	  90
  14	  95
  14	  97
  14	  99
  14	 104
  14	 105
  14	 106
  14	 108
  14	 115
  15	  16
  15	  22
  15	  23
  15	  25
  15	  26
  15	  42
  15	  44
  15	  55
  15	  56
  15	  58
  15	  59
  15	  70
  15	  71
  15	  74
  15	  75
  15	  80
  15	  81
  15	  82
  15	  89
  15	  92
  15	  93
  15	  94
  15	 105
  15	 107
  15	 108
  15	 112
  15	 114
  15	 115
  15	 119
  16	  17
  16	  18
  16	  19
  16	  21
  16	  23
  16	  26
  16	  27
  16	  30
  16	  32
  16	  33
  16	  35
  16	  39
  16	  44
  16	  47
  16	  50
  16	  52
  16	  54
  16	  55
  16	  57
  16	  61
  16	  66
  16	  67
  16	  69
  16	  71
  16	  72
  16	  76
  16	  77
  16	  80
  16	  85
  16	  86
  16	  88
  16	  90
  16	 100
  16	 101
  16	 105
  16	 106
  16	 107
  16	 108
  16	 110
  16	 112
  16	 114
  16	 116
  16	 119
  17	  19
  17	  21
  17	  25
  17	  28
  17	  29
  17	  33
  17	  35
  17	  38
  17	  43
  17	  44
  17	  53
  17	  54
  17	  55
  17	  59
  17	  66
  17	  67
  17	  69
  17	  70
  17	  78
  17	  80
  17	  81
  17	  83
  17	  90
  17	  92
  17	  94
  17	 117
  18	  28
  18	  34
  18	  36
  18	  37
  18	  38
  18	  39
  18	  40
  18	  41
  18	  45
  18	  46
  18	  50
  18	  64
  18	  65
  18	  68
  18	  69
  18	  70
  18	  73
  18	  75
  18	  76
  18	  77
  18	  84
  18	  86
  18	  88
  18	  91
  18	  94
  18	  96
  18	  97
  18	 100
  18	 104
  18	 105
  18	 108
  18	 115
  18	 116
  18	 118
  18	 119
  19	  22
  19	  23
  19	  24
  19	  25
  19	  31
  19	  38
  19	  40
  19	  43
  19	  44
  19	  45
  19	  48
  19	  51
  19	  53
  19	  56
  19	  59
  19	  62
  19	  65
  19	  69
  19	  71
  19	  73
  19	  74
  19	  79
  19	  90
  19	  91
  19	  94
  19	  96
  19	  99
  19	 110
  19	 112
  19	 119
  20	  24
  20	  30
  20	  39
  20	  41
  20	  42
  20	  50
  20	  53
  20	  60
  20	  62
  20	  66
  20	  67
  20	  71
  20	  74
  20	  76
  20	  81
  20	  83
  20	  85
  20	  89
  20	  96
  20	  97
  20	 103
  20	 105
  20	 106
  20	 110
  20	 112
  20	 114
  20	 116
  20	 117
  21	  23
  21	  25
  21	  33
  21	  34
  21	  35
  21	  36
  21	  37
  21	  38
  21	  39
  21	  42
  21	  43
  21	  56
  21	  60
  21	  61
  21	  62
  21	  64
  21	  72
  21	  74
  21	  78
  21	  79
  21	  80
  21	  84
  21	  85
  21	  91
  21	  92
  21	  96
  21	 105
  21	 108
  21	 109
  21	 110
  21	 111
  21	 113
  21	 114
  21	 115
  22	  27
  22	  33
  22	  34
  22	  35
  22	  38
  22	  40
  22	  43
  22	  50
  22	  51
  22	  55
  22	  60
  22	  62
  22	  68
  22	  70
  22	  71
  22	  73
  22	  75
  22	  79
  22	  80
  22	  82
  22	  87
  22	  88
  22	  94
  22	 101
  22	 105
  22	 111
  22	 113
  22	 115
  23	  27
  23	  40
  23	  43
  23	  53
  23	  55
  23	  57
  23	  65
  23	  69
  23	  72
  23	  73
  23	  76
  23	  77
  23	  78
  23	  80
  23	  82
  23	  88
  23	  91
  23	  93
  23	  98
  23	  99
  23	 100
  23	 102
  23	 103
  23	 104
  23	 105
  23	 110
  23	 111
  23	 114
  23	 115
  23	 118
  24	  25
  24	  26
  24	  32
  24	  35
  24	  36
  24	  43
  24	  44
  24	  46
  24	  54
  24	  57
  24	  58
  24	  64
  24	  65
  24	  66
  24	  71
  24	  73
  24	  77
  24	  79
  24	  83
  24	  84
  24	  85
  24	  86
  24	  90
  24	  92
  24	  94
  24	  96
  24	 106
  24	 108
  24	 117
  25	  30
  25	  35
  25	  37
  25	  38
  25	  39
  25	  41
  25	  45
  25	  46
  25	  54
  25	  55
  25	  56
  25	  58
  25	  66
  25	  69
  25	  70
  25	  71
  25	  73
  25	  74
  25	  75
  25	  77
  25	  79
  25	  80
  25	  82
  25	  83
  25	  84
  25	  97
  25	  98
  25	 100
  25	 101
  25	 111
  25	 112
  25	 113
  25	 114
  25	 116
  25	 119
  26	  28
  26	  31
  26	  36
  26	  38
  26	  41
  26	  43
  26	  44
  26	  45
  26	  49
  26	  57
  26	  60
  26	  63
  26	  64
  26	  67
  26	  70
  26	  71
  26	  86
  26	  94
  26	  98
  26	 102
  26	 107
  26	 113
  26	 114
  26	 116
  26	 117
  27	  28
  27	  30
  27	  33
  27	  35
  27	  36
  27	  37
  27	  44
  27	  45
  27	  46
  27	  50
  27	  54
  27	  56
  27	  60
  27	  63
  27	  66
  27	  67
  27	  74
  27	  82
  27	  86
  27	  89
  27	  90
  27	  91
  27	  92
  27	  96
  27	  99
  27	 102
  27	 106
  27	 110
  27	 114
  28	  29
  28	  33
  28	  36
  28	  45
  28	  48
  28	  50
  28	  59
  28	  64
  28	  67
  28	  69
  28	  70
  28	  74
  28	  77
  28	  78
  28	  92
  28	  98
  28	  99
  28	 102
  28	 103
  28	 113
  28	 117
  28	 119
  29	  30
  29	  37
  29	  38
  29	  42
  29	  43
  29	  45
  29	  46
  29	  47
  29	  55
  29	  57
  29	  58
  29	  59
  29	  69
  29	  77
  29	  78
  29	  81
  29	  83
  29	  91
  29	  94
  29	  96
  29	 100
  29	 102
  29	 104
  29	 105
  29	 109
  29	 112
  29	 115
  29	 116
  30	  42
  30	  44
  30	  45
  30	  46
  30	  53
  30	  55
  30	  60
  30	  71
  30	  75
  30	  81
  30	  82
  30	  86
  30	  90
  30	  91
  30	  92
  30	  94
  30	  95
  30	 100
  30	 101
  30	 102
  30	 103
  30	 108
  30	 113
  30	 114
  30	 115
  30	 118
  31	  32
  31	  36
  31	  37
  31	  44
  31	  45
  31	  46
  31	  50
  31	  54
  31	  57
  31	  58
  31	  60
  31	  61
  31	  64
  31	  65
  31	  67
  31	  70
  31	  75
  31	  76
  31	  88
  31	  90
  31	  92
  31	  94
  31	  95
  31	 101
  31	 102
  31	 109
  31	 110
  32	  36
  32	  37
  32	  39
  32	  41
  32	  43
  32	  48
  32	  50
  32	  51
  32	  54
  32	  61
  32	  65
  32	  66
  32	  75
  32	  76
  32	  78
  32	  79
  32	  81
  32	  82
  32	  88
  32	  89
  32	  91
  32	  93
  32	  97
  32	 100
  32	 101
  32	 105
  32	 107
  32	 108
  32	 111
  32	 114
  32	 118
  32	 119
  33	  41
  33	  46
  33	  49
  33	  50
  33	  51
  33	  52
  33	  54
  33	  55
  33	  57
  33	  62
  33	  69
  33	  70
  33	  72
  33	  73
  33	  75
  33	  80
  33	  82
  33	  83
  33	  84
  33	  85
  33	  97
  33	  98
  33	 104
  33	 105
  33	 108
  33	 110
  33	 113
  33	 114
  33	 119
  34	  39
  34	  41
  34	  43
  34	  44
  34	  46
  34	  49
  34	  51
  34	  56
  34	  64
  34	  65
  34	  68
  34	  71
  34	  75
  34	  77
  34	  79
  34	  81
  34	  87
  34	  88
  34	  94
  34	  95
  34	  96
  34	  97
  34	  98
  34	 105
  34	 109
  34	 113
  35	  42
  35	  43
  35	  44
  35	  45
  35	  57
  35	  64
  35	  66
  35	  77
  35	  80
  35	  82
  35	  83
  35	  84
  35	  85
  35	  86
  35	  92
  35	  94
  35	  96
  35	  98
  35	 100
  35	 107
  35	 109
  35	 110
  35	 111
  35	 112
  35	 113
  35	 114
  35	 118
  35	 119
  36	  37
  36	  46
  36	  50
  36	  52
  36	  56
  36	  60
  36	  66
  36	  71
  36	  76
  36	  77
  36	  84
  36	  89
  36	  92
  36	  94
  36	 101
  36	 105
  36	 113
  36	 115
  37	  38
  37	  39
  37	  42
  37	  44
  37	  45
  37	  46
  37	  47
  37	  48
  37	  49
  37	  50
  37	  54
  37	  57
  37	  58
  37	  60
  37	  61
  37	  62
  37	  67
  37	  74
  37	  79
  37	  81
  37	  83
  37	  84
  37	  88
  37	  92
  37	  93
  37	  94
  37	  97
  37	  98
  37	  99
  37	 100
  37	 101
  37	 104
  37	 105
  37	 109
  37	 113
  37	 115
  37	 117
  37	 118
  38	  45
  38	  47
  38	  63
  38	  66
  38	  71
  38	  72
  38	  80
  38	  84
  38	  85
  38	  87
  38	  93
  38	  95
  38	  96
  38	 104
  38	 106
  38	 107
  38	 112
  38	 114
  38	 118
  39	  42
  39	  45
  39	  47
  39	  51
  39	  55
  39	  59
  39	  62
  39	  63
  39	  64
  39	  65
  39	  68
  39	  69
  39	  72
  39	  78
  39	  79
  39	  87
  39	  93
  39	  94
  39	  96
  39	  99
  39	 101
  39	 103
  39	 104
  39	 113
  39	 119
  40	  42
  40	  45
  40	  47
  40	  49
  40	  50
  40	  51
  40	  52
  40	  57
  40	  60
  40	  61
  40	  66
  40	  67
  40	  72
  40	  74
  40	  76
  40	  77
  40	  81
  40	  85
  40	  89
  40	  91
  40	  94
  40	 100
  40	 104
  40	 108
  40	 114
  40	 119
  41	  42
  41	  43
  41	  54
  41	  56
  41	  62
  41	  65
  41	  67
  41	  70
  41	  73
  41	  78
  41	  82
  41	  84
  41	  86
  41	  88
  41	  92
  41	  99
  41	 100
  41	 101
  41	 102
  41	 107
  41	 109
  41	 111
  41	 112
  41	 114
  42	  47
  42	  48
  42	  50
  42	  55
  42	  57
  42	  63
  42	  65
  42	  68
  42	  73
  42	  75
  42	  76
  42	  77
  42	  78
  42	  79
  42	  81
  42	  82
  42	  83
  42	  89
  42	  90
  42	  94
  42	  95
  42	  98
  42	  99
  42	 100
  42	 103
  42	 110
  42	 112
  42	 114
  42	 117
  42	 119
  43	  44
  43	  48
  43	  49
  43	  53
  43	  55
  43	  58
  43	  67
  43	  68
  43	  74
  43	  78
  43	  79
  43	  81
  43	  83
  43	  85
  43	  89
  43	  91
  43	  96
  43	  97
  43	 104
  43	 105
  43	 107
  43	 109
  43	 112
  43	 114
  43	 117
  44	  49
  44	  50
  44	  51
  44	  53
  44	  59
  44	  60
  44	  61
  44	  62
  44	  63
  44	  64
  44	  67
  44	  68
  44	  69
  44	  70
  44	  75
  44	  78
  44	  85
  44	  93
  44	  95
  44	  97
  44	 103
  44	 105
  44	 111
  44	 113
  44	 115
  44	 118
  45	  50
  45	  52
  45	  53
  45	  55
  45	  57
  45	  61
  45	  62
  45	  65
  45	  67
  45	  68
  45	  70
  45	  72
  45	  73
  45	  80
  45	  82
  45	  84
  45	  86
  45	  92
  45	  94
  45	  97
  45	  98
  45	 100
  45	 101
  45	 104
  45	 105
  45	 111
  45	 112
  45	 114
  45	 115
  46	  48
  46	  51
  46	  53
  46	  70
  46	  72
  46	  79
  46	  80
  46	  82
  46	  83
  46	  85
  46	  95
  46	  97
  46	 104
  46	 106
  46	 108
  46	 111
  46	 114
  46	 119
  47	  54
  47	  60
  47	  63
  47	  65
  47	  67
  47	  77
  47	  80
  47	  81
  47	  86
  47	  89
  47	  94
  47	  97
  47	  98
  47	 101
  47	 103
  47	 109
  47	 113
  47	 114
  47	 116
  48	  49
  48	  57
  48	  58
  48	  60
  48	  62
  48	  65
  48	  67
  48	  70
  48	  72
  48	  77
  48	  84
  48	  91
  48	  94
  48	  97
  48	  99
  48	 103
  48	 112
  48	 119
  49	  62
  49	  63
  49	  64
  49	  65
  49	  74
  49	  79
  49	  81
  49	  82
  49	  83
  49	  85
  49	  87
  49	  88
  49	  89
  49	  93
  49	  94
  49	  95
  49	  97
  49	  98
  49	 101
  49	 102
  49	 107
  49	 113
  49	 114
  49	 118
  49	 119
  50	  51
  50	  56
  50	  60
  50	  61
  50	  63
  50	  67
  50	  70
  50	  71
  50	  76
  50	  86
  50	  95
  50	  97
  50	 101
  50	 104
  50	 109
  50	 111
  50	 114
  50	 115
  51	  56
  51	  61
  51	  67
  51	  69
  51	  73
  51	  75
  51	  77
  51	  79
  51	  81
  51	  92
  51	  93
  51	  94
  51	  95
  51	  96
  51	  97
  51	  98
  51	 100
  51	 101
  51	 104
  51	 107
  51	 108
  51	 109
  51	 112
  51	 116
  51	 117
  51	 118
  52	  54
  52	  56
  52	  57
  52	  60
  52	  64
  52	  66
  52	  69
  52	  72
  52	  76
  52	  77
  52	  78
  52	  80
  52	  81
  52	  84
  52	  85
  52	  86
  52	  94
  52	  97
  52	 101
  52	 102
  52	 103
  52	 105
  52	 108
  52	 114
  52	 115
  53	  54
  53	  63
  53	  71
  53	  73
  53	  76
  53	  81
  53	  82
  53	  83
  53	  84
  53	  88
  53	  94
  53	  98
  53	 100
  53	 101
  53	 102
  53	 107
  53	 109
  53	 110
  53	 118
  54	  57
  54	  59
  54	  71
  54	  72
  54	  73
  54	  74
  54	  95
  54	  98
  54	 100
  54	 106
  54	 107
  54	 108
  54	 109
  54	 111
  54	 115
  54	 117
  54	 119
  55	  56
  55	  57
  55	  58
  55	  61
  55	  75
  55	  91
  55	  92
  55	  94
  55	  98
  55	 102
  55	 105
  55	 107
  55	 109
  55	 111
  55	 114
  55	 115
  55	 119
  56	  61
  56	  72
  56	  75
  56	  79
  56	  87
  56	  88
  56	  89
  56	  91
  56	  92
  56	  98
  56	  99
  56	 103
  56	 106
  56	 109
  56	 112
  56	 117
  56	 119
  57	  58
  57	  59
  57	  63
  57	  65
  57	  66
  57	  71
  57	  78
  57	  85
  57	  89
  57	  93
  57	  94
  57	 102
  57	 110
  57	 111
  57	 112
  57	 116
  58	  68
  58	  69
  58	  78
  58	  80
  58	  89
  58	  90
  58	  91
  58	  96
  58	  97
  58	 100
  58	 101
  58	 102
  58	 103
  58	 104
  58	 105
  58	 107
  58	 109
  58	 110
  58	 111
  58	 113
  59	  61
  59	  66
  59	  67
  59	  68
  59	  69
  59	  71
  59	  72
  59	  73
  59	  74
  59	  77
  59	  88
  59	  89
  59	  91
  59	  92
  59	  94
  59	 101
  59	 104
  59	 107
  59	 112
  59	 113
  59	 115
  59	 116
  59	 117
  59	 118
  60	  66
  60	  68
  60	  76
  60	  77
  60	  80
  60	  87
  60	  92
  60	  96
  60	 104
  60	 107
  60	 108
  60	 110
  60	 113
  60	 114
  60	 116
  60	 119
  61	  65
  61	  78
  61	  85
  61	  90
  61	  91
  61	  95
  61	  96
  61	  99
  61	 103
  61	 105
  61	 110
  61	 113
  61	 114
  61	 116
  61	 119
  62	  64
  62	  66
  62	  70
  62	  73
  62	  81
  62	  86
  62	  91
  62	  92
  62	  98
  62	 101
  62	 113
  62	 116
  63	  66
  63	  69
  63	  72
  63	  73
  63	  74
  63	  76
  63	  77
  63	  82
  63	  83
  63	  84
  63	  85
  63	  89
  63	  95
  63	  97
  63	 104
  63	 105
  63	 106
  63	 107
  63	 109
  63	 112
  63	 113
  63	 117
  64	  65
  64	  66
  64	  68
  64	  69
  64	  73
  64	  74
  64	  79
  64	  80
  64	  83
  64	  86
  64	  89
  64	  94
  64	 103
  64	 104
  64	 107
  64	 110
  64	 114
  64	 115
  64	 117
  64	 119
  65	  80
  65	  83
  65	  88
  65	  95
  65	  98
  65	 100
  65	 101
  65	 105
  65	 107
  65	 113
  65	 114
  65	 116
  65	 117
  65	 118
  66	  71
  66	  72
  66	  74
  66	  76
  66	  79
  66	  81
  66	  85
  66	  93
  66	  98
  66	  99
  66	 100
  66	 104
  66	 105
  66	 107
  66	 108
  66	 109
  66	 114
  66	 117
  66	 118
  67	  74
  67	  75
  67	  79
  67	  81
  67	  82
  67	  91
  67	  92
  67	  96
  67	  97
  67	 100
  67	 101
  67	 103
  67	 108
  67	 112
  67	 116
  68	  72
  68	  78
  68	  79
  68	  85
  68	  89
  68	  90
  68	  96
  68	 103
  68	 104
  68	 110
  68	 113
  68	 116
  68	 118
  69	  72
  69	  73
  69	  76
  69	  79
  69	  80
  69	  82
  69	  84
  69	  87
  69	  96
  69	  97
  69	 103
  69	 104
  69	 105
  69	 110
  69	 112
  69	 114
  69	 117
  70	  72
  70	  75
  70	  78
  70	  87
  70	  89
  70	  90
  70	  95
  70	  97
  70	  99
  70	 103
  70	 104
  70	 107
  70	 108
  70	 111
  70	 115
  70	 117
  70	 119
  71	  72
  71	  73
  71	  74
  71	  81
  71	  85
  71	  89
  71	  97
  71	  99
  71	 100
  71	 107
  71	 110
  71	 111
  71	 116
  71	 119
  72	  78
  72	  85
  72	  87
  72	  90
  72	  91
  72	  92
  72	  98
  72	 100
  72	 101
  72	 105
  72	 106
  72	 109
  72	 112
  72	 114
  72	 115
  72	 118
  73	  76
  73	  79
  73	  85
  73	  88
  73	  94
  73	  97
  73	 101
  73	 109
  73	 116
  73	 118
  74	  76
  74	  86
  74	  88
  74	  89
  74	  90
  74	  95
  74	  98
  74	 100
  74	 102
  74	 104
  74	 106
  74	 107
  74	 109
  74	 111
  74	 112
  74	 115
  74	 117
  75	  77
  75	  82
  75	  84
  75	  90
  75	  94
  75	 102
  75	 106
  75	 108
  75	 110
  75	 114
  75	 118
  76	  78
  76	  79
  76	  81
  76	  89
  76	  90
  76	  94
  76	  95
  76	 100
  76	 108
  76	 114
  76	 115
  76	 119
  77	  81
  77	  84
  77	  85
  77	  87
  77	  90
  77	  93
  77	  96
  77	  97
  77	 101
  77	 110
  77	 114
  77	 115
  78	  79
  78	  80
  78	  85
  78	  86
  78	  89
  78	  93
  78	 100
  78	 103
  78	 110
  78	 115
  79	  95
  79	  97
  79	 100
  79	 101
  79	 103
  79	 108
  79	 109
  79	 114
  80	  86
  80	  87
  80	  89
  80	  93
  80	  94
  80	  96
  80	  99
  80	 100
  80	 102
  80	 107
  80	 110
  80	 111
  80	 112
  80	 114
  80	 117
  81	  86
  81	  88
  81	  89
  81	  93
  81	 106
  81	 108
  81	 112
  81	 113
  81	 117
  82	  83
  82	  84
  82	  91
  82	  99
  82	 109
  82	 112
  82	 113
  82	 114
  82	 116
  82	 117
  82	 118
  83	  84
  83	  86
  83	  89
  83	  91
  83	  94
  83	 102
  83	 103
  83	 105
  83	 110
  83	 115
  84	  85
  84	  97
  84	  99
  84	 101
  84	 105
  84	 107
  84	 112
  84	 115
  84	 116
  85	  93
  85	  94
  85	  99
  85	 101
  85	 106
  85	 109
  85	 112
  86	  90
  86	  96
  86	 102
  86	 103
  86	 104
  86	 105
  86	 107
  86	 113
  86	 117
  86	 119
  87	  97
  87	 100
  87	 101
  87	 104
  87	 105
  87	 107
  87	 113
  87	 114
  87	 116
  88	  89
  88	  91
  88	  97
  88	 100
  88	 102
  88	 104
  88	 105
  88	 106
  88	 108
  88	 110
  88	 112
  88	 114
  88	 116
  89	  90
  89	  91
  89	  93
  89	  95
  89	  99
  89	 101
  89	 105
  89	 106
  89	 107
  89	 115
  89	 117
  90	  92
  90	  93
  90	  96
  90	  97
  90	  99
  90	 101
  90	 102
  90	 113
  91	  96
  91	  98
  91	  99
  91	 100
  91	 105
  91	 115
  92	  93
  92	  94
  92	  97
  92	  98
  92	 102
  92	 113
  92	 119
  93	  99
  93	 103
  93	 104
  93	 105
  93	 108
  93	 111
  93	 112
  93	 113
  93	 118
  94	 102
  94	 105
  94	 106
  94	 111
  94	 112
  95	  96
  95	  97
  95	  99
  95	 101
  95	 106
  95	 109
  95	 112
  95	 116
  95	 117
  96	 103
  96	 106
  96	 111
  97	  98
  97	 102
  97	 113
  97	 114
  97	 115
  98	  99
  98	 101
  98	 103
  98	 109
  99	 101
  99	 102
  99	 104
  99	 107
  99	 109
  99	 111
  99	 119
 100	 109
 100	 111
 100	 113
 100	 115
 100	 117
 101	 102
 101	 106
 101	 112
 102	 104
 102	 108
 102	 113
 102	 114
 102	 115
 102	 116
 103	 107
 103	 111
 103	 114
 103	 117
 104	 105
 104	 106
 104	 110
 104	 113
 104	 114
 104	 115
 105	 112
 105	 113
 105	 115
 105	 116
 105	 118
 105	 119
 107	 111
 107	 115
 107	 116
 107	 118
 108	 114
 109	 117
 110	 111
 110	 114
 110	 118
 112	 115
 112	 119
 113	 115
 114	 115
 114	 116
 115	 117
 116	 117
 116	 118
 117	 118
;
